c CNF
c from Selman's wff generator
p cnf 200  1300
1.0 88 129 0
1.0 -153 134 0
1.0 -108 -53 0
1.0 -123 119 0
1.0 -95 -41 0
1.0 -18 165 0
1.0 -73 -103 0
1.0 118 165 0
1.0 94 141 0
1.0 75 -155 0
1.0 -7 -23 0
1.0 -142 62 0
1.0 -102 -159 0
1.0 -123 -97 0
1.0 -200 -127 0
1.0 -92 -85 0
1.0 25 166 0
1.0 120 -91 0
1.0 113 38 0
1.0 100 32 0
1.0 -190 -50 0
1.0 -147 -104 0
1.0 31 -99 0
1.0 -184 183 0
1.0 -148 139 0
1.0 -29 -189 0
1.0 -27 -50 0
1.0 -81 86 0
1.0 -136 47 0
1.0 151 -90 0
1.0 -189 -89 0
1.0 -71 10 0
1.0 148 -87 0
1.0 -75 -81 0
1.0 130 115 0
1.0 200 -154 0
1.0 1 -64 0
1.0 -153 -43 0
1.0 -131 34 0
1.0 44 -92 0
1.0 -179 107 0
1.0 -188 -87 0
1.0 -2 182 0
1.0 -136 -9 0
1.0 72 151 0
1.0 -194 -17 0
1.0 -51 79 0
1.0 171 -147 0
1.0 54 -2 0
1.0 -157 -158 0
1.0 85 143 0
1.0 -78 9 0
1.0 94 -189 0
1.0 -155 147 0
1.0 73 54 0
1.0 140 -152 0
1.0 -154 -113 0
1.0 71 -76 0
1.0 18 122 0
1.0 -131 11 0
1.0 -200 -145 0
1.0 -92 -95 0
1.0 -149 190 0
1.0 141 55 0
1.0 168 16 0
1.0 -91 -53 0
1.0 175 -39 0
1.0 -50 127 0
1.0 72 -63 0
1.0 -158 -188 0
1.0 -177 -109 0
1.0 164 -75 0
1.0 -90 -16 0
1.0 69 161 0
1.0 -200 92 0
1.0 19 77 0
1.0 140 99 0
1.0 86 180 0
1.0 -88 196 0
1.0 -70 -192 0
1.0 -8 151 0
1.0 -111 -27 0
1.0 -119 -68 0
1.0 144 55 0
1.0 -154 82 0
1.0 -61 -183 0
1.0 -178 82 0
1.0 74 182 0
1.0 -132 144 0
1.0 -171 77 0
1.0 145 111 0
1.0 -166 -55 0
1.0 -136 -152 0
1.0 -134 -59 0
1.0 -141 145 0
1.0 126 163 0
1.0 107 53 0
1.0 -130 53 0
1.0 -163 -194 0
1.0 49 -133 0
1.0 -85 3 0
1.0 -62 126 0
1.0 70 -87 0
1.0 50 -113 0
1.0 165 154 0
1.0 -6 -200 0
1.0 193 129 0
1.0 62 -141 0
1.0 -144 6 0
1.0 132 94 0
1.0 -181 24 0
1.0 -136 -51 0
1.0 -4 20 0
1.0 -20 163 0
1.0 91 -71 0
1.0 12 -78 0
1.0 -84 64 0
1.0 158 -167 0
1.0 -191 -12 0
1.0 62 156 0
1.0 176 -22 0
1.0 184 50 0
1.0 121 -59 0
1.0 137 127 0
1.0 190 -47 0
1.0 14 49 0
1.0 -61 -55 0
1.0 -11 -158 0
1.0 -180 -62 0
1.0 111 187 0
1.0 -46 -66 0
1.0 192 -51 0
1.0 -98 -36 0
1.0 -85 -16 0
1.0 71 46 0
1.0 4 -56 0
1.0 -117 48 0
1.0 35 185 0
1.0 50 23 0
1.0 74 -65 0
1.0 101 -153 0
1.0 -168 196 0
1.0 -41 199 0
1.0 55 -185 0
1.0 -33 173 0
1.0 -157 59 0
1.0 81 -9 0
1.0 -74 -72 0
1.0 -24 -7 0
1.0 2 92 0
1.0 90 -148 0
1.0 -133 -113 0
1.0 86 115 0
1.0 173 178 0
1.0 187 97 0
1.0 169 -133 0
1.0 -139 -195 0
1.0 -86 -13 0
1.0 -161 70 0
1.0 183 36 0
1.0 -150 -90 0
1.0 -67 159 0
1.0 -56 183 0
1.0 115 149 0
1.0 -144 199 0
1.0 12 -177 0
1.0 47 125 0
1.0 160 -125 0
1.0 15 6 0
1.0 -165 5 0
1.0 188 -49 0
1.0 -197 -60 0
1.0 -59 150 0
1.0 127 -173 0
1.0 98 109 0
1.0 -34 98 0
1.0 -104 196 0
1.0 1 -64 0
1.0 112 -132 0
1.0 191 46 0
1.0 -196 -16 0
1.0 189 162 0
1.0 -71 -96 0
1.0 -193 109 0
1.0 -105 -81 0
1.0 144 52 0
1.0 -184 -183 0
1.0 28 11 0
1.0 -26 142 0
1.0 -103 -39 0
1.0 135 -44 0
1.0 153 29 0
1.0 -110 186 0
1.0 -38 54 0
1.0 -36 71 0
1.0 81 -17 0
1.0 -158 31 0
1.0 70 22 0
1.0 -66 111 0
1.0 140 154 0
1.0 -140 -35 0
1.0 -89 -9 0
1.0 -79 -191 0
1.0 8 -75 0
1.0 106 -185 0
1.0 -7 59 0
1.0 169 -110 0
1.0 -64 164 0
1.0 -198 57 0
1.0 65 -176 0
1.0 -167 -198 0
1.0 -73 -165 0
1.0 -150 -163 0
1.0 22 -132 0
1.0 42 -118 0
1.0 -82 53 0
1.0 -109 -86 0
1.0 -62 176 0
1.0 174 17 0
1.0 182 -140 0
1.0 103 -175 0
1.0 -106 -116 0
1.0 34 -10 0
1.0 -62 -159 0
1.0 -44 -159 0
1.0 -135 -59 0
1.0 -75 135 0
1.0 -74 -176 0
1.0 151 74 0
1.0 190 12 0
1.0 -22 55 0
1.0 13 131 0
1.0 -90 197 0
1.0 -55 -95 0
1.0 -29 -85 0
1.0 61 171 0
1.0 45 177 0
1.0 188 71 0
1.0 126 -194 0
1.0 -125 145 0
1.0 142 -156 0
1.0 -50 170 0
1.0 -55 -110 0
1.0 -81 -57 0
1.0 -34 195 0
1.0 66 -16 0
1.0 -9 -122 0
1.0 -67 122 0
1.0 77 -187 0
1.0 156 129 0
1.0 -38 -184 0
1.0 40 53 0
1.0 48 -2 0
1.0 -17 124 0
1.0 -46 -31 0
1.0 -152 107 0
1.0 -94 124 0
1.0 53 158 0
1.0 142 -186 0
1.0 39 51 0
1.0 -52 149 0
1.0 72 -101 0
1.0 131 52 0
1.0 -159 150 0
1.0 -73 -65 0
1.0 23 -161 0
1.0 -146 -24 0
1.0 75 -200 0
1.0 -148 67 0
1.0 -167 88 0
1.0 -140 166 0
1.0 -116 -91 0
1.0 -156 -51 0
1.0 -12 -129 0
1.0 -153 88 0
1.0 -87 11 0
1.0 77 149 0
1.0 -37 -191 0
1.0 157 121 0
1.0 11 -25 0
1.0 -75 173 0
1.0 102 86 0
1.0 174 184 0
1.0 194 36 0
1.0 -184 148 0
1.0 -138 56 0
1.0 -176 -71 0
1.0 -95 -25 0
1.0 198 96 0
1.0 -182 -99 0
1.0 83 35 0
1.0 -70 109 0
1.0 57 -61 0
1.0 116 71 0
1.0 141 54 0
1.0 79 30 0
1.0 -126 -61 0
1.0 160 128 0
1.0 -162 76 0
1.0 185 64 0
1.0 124 160 0
1.0 -31 -124 0
1.0 178 9 0
1.0 -39 -12 0
1.0 73 106 0
1.0 33 -132 0
1.0 7 -191 0
1.0 54 -113 0
1.0 72 -68 0
1.0 192 -148 0
1.0 157 -80 0
1.0 -92 -155 0
1.0 -60 29 0
1.0 160 -70 0
1.0 -60 -114 0
1.0 26 190 0
1.0 -58 107 0
1.0 54 73 0
1.0 153 42 0
1.0 197 164 0
1.0 -193 -5 0
1.0 -74 -36 0
1.0 149 -76 0
1.0 66 -135 0
1.0 -42 71 0
1.0 -144 190 0
1.0 -32 111 0
1.0 75 150 0
1.0 155 32 0
1.0 -67 137 0
1.0 -12 6 0
1.0 141 -61 0
1.0 132 173 0
1.0 -163 -183 0
1.0 94 -113 0
1.0 62 105 0
1.0 137 54 0
1.0 191 5 0
1.0 11 -8 0
1.0 -68 -80 0
1.0 53 11 0
1.0 193 45 0
1.0 157 30 0
1.0 135 91 0
1.0 145 -79 0
1.0 -83 93 0
1.0 101 -17 0
1.0 -97 -177 0
1.0 -187 -41 0
1.0 86 173 0
1.0 3 -123 0
1.0 13 -96 0
1.0 174 83 0
1.0 -176 29 0
1.0 46 -193 0
1.0 170 -11 0
1.0 -51 -56 0
1.0 -28 4 0
1.0 -126 -40 0
1.0 136 -177 0
1.0 -60 188 0
1.0 -17 114 0
1.0 107 153 0
1.0 164 95 0
1.0 -150 -169 0
1.0 172 129 0
1.0 168 -177 0
1.0 154 130 0
1.0 117 -177 0
1.0 -91 -157 0
1.0 110 199 0
1.0 93 105 0
1.0 74 37 0
1.0 -165 -28 0
1.0 5 -177 0
1.0 -107 48 0
1.0 -24 -18 0
1.0 -174 152 0
1.0 -150 184 0
1.0 89 -42 0
1.0 78 103 0
1.0 -131 -150 0
1.0 127 10 0
1.0 57 62 0
1.0 -80 13 0
1.0 -164 -107 0
1.0 -91 -154 0
1.0 38 -142 0
1.0 149 52 0
1.0 26 5 0
1.0 96 -57 0
1.0 113 -174 0
1.0 169 90 0
1.0 -26 -200 0
1.0 154 -144 0
1.0 -85 58 0
1.0 -109 -1 0
1.0 -5 -156 0
1.0 13 -63 0
1.0 37 95 0
1.0 185 137 0
1.0 -137 43 0
1.0 186 174 0
1.0 -32 -13 0
1.0 13 36 0
1.0 -192 45 0
1.0 -108 -176 0
1.0 -71 179 0
1.0 116 27 0
1.0 -70 191 0
1.0 -165 -24 0
1.0 -36 30 0
1.0 65 11 0
1.0 56 -184 0
1.0 -160 190 0
1.0 169 55 0
1.0 -82 -151 0
1.0 142 -78 0
1.0 -102 -132 0
1.0 -161 38 0
1.0 48 -51 0
1.0 35 -143 0
1.0 132 173 0
1.0 -28 -111 0
1.0 62 119 0
1.0 -196 65 0
1.0 197 -10 0
1.0 -47 19 0
1.0 -70 -64 0
1.0 6 -63 0
1.0 35 123 0
1.0 -33 20 0
1.0 138 -30 0
1.0 95 5 0
1.0 15 65 0
1.0 -84 -29 0
1.0 93 153 0
1.0 16 156 0
1.0 -78 -72 0
1.0 92 83 0
1.0 -113 101 0
1.0 106 -194 0
1.0 -58 -145 0
1.0 174 138 0
1.0 -91 -151 0
1.0 -106 -200 0
1.0 72 -69 0
1.0 -152 99 0
1.0 200 -155 0
1.0 149 169 0
1.0 -113 7 0
1.0 -145 42 0
1.0 -192 116 0
1.0 115 -98 0
1.0 -166 -176 0
1.0 -74 141 0
1.0 -96 53 0
1.0 21 -3 0
1.0 10 -198 0
1.0 -39 172 0
1.0 -87 130 0
1.0 -27 -9 0
1.0 -184 135 0
1.0 -76 -92 0
1.0 144 -109 0
1.0 112 -64 0
1.0 62 118 0
1.0 -89 -63 0
1.0 -193 58 0
1.0 66 164 0
1.0 -99 -121 0
1.0 -12 -38 0
1.0 -147 158 0
1.0 -22 19 0
1.0 -137 53 0
1.0 116 -112 0
1.0 -169 177 0
1.0 141 138 0
1.0 59 191 0
1.0 29 -155 0
1.0 113 -147 0
1.0 166 -12 0
1.0 -65 -198 0
1.0 109 127 0
1.0 -104 16 0
1.0 153 195 0
1.0 186 94 0
1.0 -49 -109 0
1.0 55 23 0
1.0 -34 110 0
1.0 108 49 0
1.0 176 167 0
1.0 -183 -4 0
1.0 -199 -5 0
1.0 -98 -29 0
1.0 -137 -187 0
1.0 9 200 0
1.0 -109 133 0
1.0 181 -20 0
1.0 187 -125 0
1.0 -129 -158 0
1.0 -162 50 0
1.0 78 109 0
1.0 95 -111 0
1.0 -111 17 0
1.0 149 -87 0
1.0 106 68 0
1.0 193 -120 0
1.0 78 163 0
1.0 13 159 0
1.0 -67 -103 0
1.0 14 -110 0
1.0 -126 11 0
1.0 97 179 0
1.0 46 90 0
1.0 -10 154 0
1.0 -117 -7 0
1.0 166 24 0
1.0 -126 -124 0
1.0 33 -59 0
1.0 70 -7 0
1.0 -186 37 0
1.0 126 -62 0
1.0 16 -28 0
1.0 35 -147 0
1.0 170 80 0
1.0 4 26 0
1.0 -84 -99 0
1.0 -105 28 0
1.0 -64 -87 0
1.0 -149 -190 0
1.0 18 147 0
1.0 93 156 0
1.0 -36 83 0
1.0 108 -192 0
1.0 -91 -70 0
1.0 97 -62 0
1.0 -149 7 0
1.0 196 75 0
1.0 21 -156 0
1.0 -112 -115 0
1.0 -197 -133 0
1.0 125 61 0
1.0 130 39 0
1.0 -101 96 0
1.0 -102 137 0
1.0 -12 6 0
1.0 -162 175 0
1.0 90 121 0
1.0 -54 -5 0
1.0 -65 -86 0
1.0 124 3 0
1.0 98 -6 0
1.0 143 -19 0
1.0 -25 -8 0
1.0 182 131 0
1.0 -52 -79 0
1.0 83 -148 0
1.0 -34 -75 0
1.0 -78 -163 0
1.0 -169 -54 0
1.0 73 72 0
1.0 79 49 0
1.0 -179 141 0
1.0 -19 -90 0
1.0 38 17 0
1.0 92 -192 0
1.0 -154 -9 0
1.0 63 -118 0
1.0 189 96 0
1.0 -144 -113 0
1.0 -54 59 0
1.0 -148 -88 0
1.0 105 -23 0
1.0 -15 -84 0
1.0 92 -108 0
1.0 26 122 0
1.0 17 -120 0
1.0 33 9 0
1.0 -68 36 0
1.0 123 130 0
1.0 153 -56 0
1.0 -139 188 0
1.0 -96 -24 0
1.0 -146 -74 0
1.0 -193 16 0
1.0 -24 5 0
1.0 -40 -67 0
1.0 -197 -107 0
1.0 -162 -11 0
1.0 -198 49 0
1.0 73 116 0
1.0 -189 -149 0
1.0 164 -101 0
1.0 105 -116 0
1.0 -182 -185 0
1.0 -91 94 0
1.0 -105 -42 0
1.0 -90 -84 0
1.0 -200 -10 0
1.0 -158 -159 0
1.0 -59 -174 0
1.0 -90 188 0
1.0 173 14 0
1.0 -107 176 0
1.0 -17 -69 0
1.0 153 -110 0
1.0 -119 49 0
1.0 -7 109 0
1.0 83 -107 0
1.0 95 137 0
1.0 -151 92 0
1.0 67 46 0
1.0 -115 183 0
1.0 92 60 0
1.0 108 -160 0
1.0 -68 -85 0
1.0 -192 9 0
1.0 -146 163 0
1.0 -54 -83 0
1.0 129 21 0
1.0 -3 195 0
1.0 -54 -130 0
1.0 89 -193 0
1.0 -78 54 0
1.0 -62 26 0
1.0 -188 108 0
1.0 -191 -54 0
1.0 -75 167 0
1.0 -161 72 0
1.0 -2 77 0
1.0 70 -50 0
1.0 104 -151 0
1.0 -177 -171 0
1.0 79 74 0
1.0 -128 169 0
1.0 135 150 0
1.0 -22 51 0
1.0 -128 -85 0
1.0 -135 159 0
1.0 110 159 0
1.0 130 175 0
1.0 48 -56 0
1.0 -24 -65 0
1.0 14 56 0
1.0 106 163 0
1.0 48 -172 0
1.0 130 173 0
1.0 -132 22 0
1.0 196 175 0
1.0 30 145 0
1.0 9 196 0
1.0 52 -64 0
1.0 -27 117 0
1.0 88 20 0
1.0 193 -75 0
1.0 -96 182 0
1.0 -157 -53 0
1.0 198 154 0
1.0 149 -50 0
1.0 -114 -88 0
1.0 4 147 0
1.0 -166 -70 0
1.0 144 166 0
1.0 -148 -66 0
1.0 119 -66 0
1.0 -19 -128 0
1.0 -177 152 0
1.0 39 123 0
1.0 -69 44 0
1.0 -113 42 0
1.0 8 -73 0
1.0 138 28 0
1.0 -93 -146 0
1.0 73 95 0
1.0 -47 45 0
1.0 -168 169 0
1.0 12 -61 0
1.0 -103 -63 0
1.0 136 77 0
1.0 -104 -121 0
1.0 -67 -102 0
1.0 -196 186 0
1.0 -31 -128 0
1.0 97 -55 0
1.0 116 107 0
1.0 -170 -14 0
1.0 -90 -191 0
1.0 -111 -107 0
1.0 -8 98 0
1.0 84 -105 0
1.0 -33 -173 0
1.0 28 -149 0
1.0 -56 70 0
1.0 -83 -87 0
1.0 -77 -107 0
1.0 -13 156 0
1.0 53 -80 0
1.0 185 70 0
1.0 -42 163 0
1.0 111 -182 0
1.0 -52 -171 0
1.0 -57 -120 0
1.0 -26 72 0
1.0 27 85 0
1.0 164 -84 0
1.0 -153 -65 0
1.0 28 -110 0
1.0 -92 -74 0
1.0 45 -95 0
1.0 15 183 0
1.0 54 155 0
1.0 -39 138 0
1.0 -22 -176 0
1.0 -40 115 0
1.0 24 -31 0
1.0 104 -110 0
1.0 4 134 0
1.0 116 -83 0
1.0 38 137 0
1.0 75 11 0
1.0 186 29 0
1.0 143 -37 0
1.0 67 -99 0
1.0 -8 138 0
1.0 71 -167 0
1.0 -50 88 0
1.0 -25 6 0
1.0 -17 42 0
1.0 70 65 0
1.0 -101 -121 0
1.0 -19 59 0
1.0 197 55 0
1.0 22 67 0
1.0 -154 -8 0
1.0 14 121 0
1.0 162 73 0
1.0 137 59 0
1.0 179 -22 0
1.0 81 141 0
1.0 -196 60 0
1.0 126 196 0
1.0 4 46 0
1.0 166 -136 0
1.0 -8 -78 0
1.0 -137 -2 0
1.0 -24 -185 0
1.0 -126 -135 0
1.0 -194 -124 0
1.0 -119 -26 0
1.0 -71 57 0
1.0 -192 -186 0
1.0 -64 -122 0
1.0 -124 -116 0
1.0 28 -51 0
1.0 -31 -155 0
1.0 93 -76 0
1.0 -75 -194 0
1.0 -133 -24 0
1.0 -187 -123 0
1.0 66 -182 0
1.0 97 -177 0
1.0 28 132 0
1.0 87 -42 0
1.0 118 -83 0
1.0 -77 83 0
1.0 -106 47 0
1.0 -170 109 0
1.0 91 -30 0
1.0 -7 124 0
1.0 56 -197 0
1.0 -38 -103 0
1.0 -186 15 0
1.0 97 70 0
1.0 117 199 0
1.0 -108 -95 0
1.0 -124 -147 0
1.0 -71 -96 0
1.0 92 -56 0
1.0 158 -186 0
1.0 200 31 0
1.0 101 76 0
1.0 -74 -195 0
1.0 -89 25 0
1.0 -172 164 0
1.0 -59 -107 0
1.0 163 -33 0
1.0 19 164 0
1.0 -195 68 0
1.0 -144 15 0
1.0 -9 15 0
1.0 -39 177 0
1.0 141 -52 0
1.0 -159 -18 0
1.0 51 29 0
1.0 193 -105 0
1.0 173 -2 0
1.0 -16 193 0
1.0 -8 131 0
1.0 108 30 0
1.0 82 107 0
1.0 -124 -197 0
1.0 25 2 0
1.0 107 130 0
1.0 -132 -86 0
1.0 -78 128 0
1.0 -59 -92 0
1.0 121 186 0
1.0 93 62 0
1.0 -58 2 0
1.0 4 -34 0
1.0 -163 104 0
1.0 189 184 0
1.0 -111 -12 0
1.0 -103 83 0
1.0 69 -149 0
1.0 -10 67 0
1.0 -68 167 0
1.0 -200 -49 0
1.0 153 -171 0
1.0 155 98 0
1.0 109 159 0
1.0 41 -169 0
1.0 118 -59 0
1.0 -125 -45 0
1.0 11 145 0
1.0 -194 -47 0
1.0 17 -30 0
1.0 127 93 0
1.0 51 70 0
1.0 -39 -80 0
1.0 138 68 0
1.0 113 -79 0
1.0 -23 120 0
1.0 -166 -107 0
1.0 -136 48 0
1.0 140 -190 0
1.0 60 142 0
1.0 21 -82 0
1.0 150 138 0
1.0 -16 77 0
1.0 197 -120 0
1.0 -27 -16 0
1.0 63 98 0
1.0 -88 -121 0
1.0 63 75 0
1.0 157 -99 0
1.0 -36 63 0
1.0 140 -153 0
1.0 73 144 0
1.0 160 42 0
1.0 140 84 0
1.0 -5 18 0
1.0 -93 18 0
1.0 -117 -192 0
1.0 55 -122 0
1.0 -74 -94 0
1.0 38 -27 0
1.0 69 105 0
1.0 189 -44 0
1.0 62 -10 0
1.0 28 -9 0
1.0 1 158 0
1.0 79 -100 0
1.0 194 179 0
1.0 6 143 0
1.0 48 47 0
1.0 91 -119 0
1.0 -128 -88 0
1.0 97 109 0
1.0 -66 -195 0
1.0 94 1 0
1.0 -179 -195 0
1.0 138 -146 0
1.0 192 141 0
1.0 59 -49 0
1.0 -137 140 0
1.0 -49 -40 0
1.0 34 -83 0
1.0 84 155 0
1.0 149 132 0
1.0 77 104 0
1.0 -44 -92 0
1.0 141 185 0
1.0 -125 -30 0
1.0 69 -42 0
1.0 124 144 0
1.0 99 42 0
1.0 -173 115 0
1.0 -18 4 0
1.0 -96 68 0
1.0 -53 113 0
1.0 -23 149 0
1.0 -35 -52 0
1.0 81 -195 0
1.0 63 -124 0
1.0 -57 144 0
1.0 -62 -56 0
1.0 -20 192 0
1.0 -104 -158 0
1.0 -106 -104 0
1.0 -156 179 0
1.0 -173 196 0
1.0 120 -52 0
1.0 196 6 0
1.0 -62 193 0
1.0 -184 167 0
1.0 125 107 0
1.0 -11 -5 0
1.0 183 -90 0
1.0 -86 159 0
1.0 -11 2 0
1.0 8 18 0
1.0 -11 -49 0
1.0 16 -103 0
1.0 -10 96 0
1.0 -101 141 0
1.0 30 -186 0
1.0 -144 -28 0
1.0 -30 101 0
1.0 -119 -23 0
1.0 -72 56 0
1.0 158 -5 0
1.0 -100 196 0
1.0 136 -171 0
1.0 157 122 0
1.0 149 -1 0
1.0 102 14 0
1.0 -37 -120 0
1.0 -175 -72 0
1.0 76 -21 0
1.0 -17 -86 0
1.0 -57 60 0
1.0 -181 -199 0
1.0 -199 -167 0
1.0 -180 122 0
1.0 -41 70 0
1.0 -142 119 0
1.0 -140 -48 0
1.0 -134 -170 0
1.0 29 26 0
1.0 -24 115 0
1.0 -81 46 0
1.0 167 44 0
1.0 113 1 0
1.0 120 172 0
1.0 20 -64 0
1.0 -34 124 0
1.0 149 -145 0
1.0 -59 -9 0
1.0 -55 118 0
1.0 162 76 0
1.0 -77 -53 0
1.0 25 200 0
1.0 -64 71 0
1.0 -194 -140 0
1.0 -85 -29 0
1.0 38 110 0
1.0 -28 -82 0
1.0 158 142 0
1.0 195 191 0
1.0 190 85 0
1.0 -155 -60 0
1.0 200 107 0
1.0 136 -4 0
1.0 114 -111 0
1.0 -193 -177 0
1.0 -119 -193 0
1.0 -183 -13 0
1.0 97 194 0
1.0 -54 176 0
1.0 -82 88 0
1.0 -91 165 0
1.0 -75 54 0
1.0 30 -74 0
1.0 66 200 0
1.0 12 -193 0
1.0 -187 48 0
1.0 23 -156 0
1.0 -44 -30 0
1.0 -194 111 0
1.0 -164 -82 0
1.0 -156 153 0
1.0 152 -3 0
1.0 196 -92 0
1.0 139 -29 0
1.0 185 115 0
1.0 -144 -188 0
1.0 98 100 0
1.0 181 -141 0
1.0 -93 196 0
1.0 199 -28 0
1.0 -119 78 0
1.0 107 197 0
1.0 -112 85 0
1.0 -72 -81 0
1.0 180 -197 0
1.0 138 85 0
1.0 81 55 0
1.0 -82 -73 0
1.0 48 58 0
1.0 -77 -157 0
1.0 76 -10 0
1.0 -2 -3 0
1.0 -34 -96 0
1.0 -193 165 0
1.0 -40 -78 0
1.0 150 -128 0
1.0 186 145 0
1.0 102 -197 0
1.0 -7 57 0
1.0 60 69 0
1.0 164 -140 0
1.0 105 -10 0
1.0 87 132 0
1.0 60 144 0
1.0 -89 -75 0
1.0 -71 130 0
1.0 186 100 0
1.0 -168 -89 0
1.0 29 -148 0
1.0 158 92 0
1.0 23 142 0
1.0 -85 -114 0
1.0 -188 33 0
1.0 -162 -130 0
1.0 -29 -19 0
1.0 -107 -130 0
1.0 78 17 0
1.0 108 -145 0
1.0 86 -159 0
1.0 -73 138 0
1.0 -171 -107 0
1.0 36 53 0
1.0 71 -72 0
1.0 -1 190 0
1.0 -6 -181 0
1.0 125 191 0
1.0 -150 55 0
1.0 193 -124 0
1.0 30 1 0
1.0 -53 -174 0
1.0 -46 191 0
1.0 -180 -14 0
1.0 194 -37 0
1.0 -27 -142 0
1.0 -196 -109 0
1.0 -33 80 0
1.0 -80 -45 0
1.0 19 57 0
1.0 -48 158 0
1.0 172 -35 0
1.0 71 111 0
1.0 52 12 0
1.0 121 -70 0
1.0 149 187 0
1.0 -32 142 0
1.0 -199 16 0
1.0 174 -24 0
1.0 -58 -85 0
1.0 195 192 0
1.0 4 -97 0
1.0 167 -129 0
1.0 -115 -91 0
1.0 -33 102 0
1.0 118 110 0
1.0 133 -149 0
1.0 -34 144 0
1.0 136 -144 0
1.0 40 166 0
1.0 -94 139 0
1.0 -30 63 0
1.0 165 149 0
1.0 -58 -170 0
1.0 -119 -8 0
1.0 -151 101 0
1.0 44 52 0
1.0 17 -88 0
1.0 -26 10 0
1.0 73 118 0
1.0 11 -118 0
1.0 90 70 0
1.0 51 -50 0
1.0 -29 134 0
1.0 160 78 0
1.0 167 -8 0
1.0 127 -128 0
1.0 45 85 0
1.0 3 98 0
1.0 -168 134 0
1.0 -184 37 0
1.0 171 -163 0
1.0 -40 188 0
1.0 -196 -49 0
1.0 -176 32 0
1.0 116 -140 0
1.0 38 111 0
1.0 45 199 0
1.0 35 191 0
1.0 -154 -130 0
1.0 -118 -111 0
1.0 159 -183 0
1.0 -15 -155 0
1.0 94 -31 0
1.0 -142 -58 0
1.0 57 158 0
1.0 148 -52 0
1.0 182 31 0
1.0 142 94 0
1.0 77 48 0
1.0 2 188 0
1.0 19 -69 0
1.0 -127 -161 0
1.0 118 158 0
1.0 -10 -172 0
1.0 3 -61 0
1.0 154 103 0
1.0 -150 -77 0
1.0 64 142 0
1.0 11 -72 0
1.0 -32 -187 0
1.0 145 -196 0
1.0 -167 -182 0
1.0 -42 -35 0
1.0 138 155 0
1.0 31 147 0
1.0 -89 84 0
1.0 156 -19 0
1.0 -5 -158 0
1.0 -153 -152 0
1.0 133 -47 0
1.0 -81 2 0
1.0 -156 -194 0
1.0 141 142 0
1.0 -26 -59 0
1.0 -77 164 0
1.0 121 105 0
1.0 -56 -133 0
1.0 -179 83 0
1.0 84 131 0
1.0 125 181 0
1.0 123 -109 0
1.0 -167 21 0
1.0 -185 -98 0
1.0 -2 156 0
1.0 88 173 0
1.0 -56 -8 0
1.0 -139 2 0
1.0 -182 -5 0
1.0 114 22 0
1.0 -42 183 0
1.0 -80 49 0
1.0 -4 111 0
1.0 -84 -185 0
1.0 193 -82 0
1.0 -83 56 0
1.0 -61 -122 0
1.0 144 -23 0
1.0 5 178 0
1.0 -26 143 0
1.0 -54 -104 0
1.0 88 78 0
1.0 159 153 0
1.0 -9 4 0
1.0 126 74 0
1.0 -97 55 0
1.0 67 185 0
1.0 150 129 0
1.0 -50 -200 0
1.0 75 19 0
1.0 29 126 0
1.0 -31 -106 0
1.0 149 29 0
1.0 -83 -102 0
1.0 -86 18 0
1.0 147 -21 0
1.0 -20 27 0
1.0 -46 8 0
1.0 -134 -158 0
1.0 63 66 0
1.0 95 -71 0
1.0 -172 175 0
1.0 193 -84 0
1.0 -105 -180 0
1.0 7 58 0
1.0 -66 -140 0
1.0 -97 -34 0
1.0 -100 -34 0
1.0 -104 26 0
1.0 -200 -96 0
1.0 -180 26 0
1.0 6 66 0
1.0 124 -27 0
1.0 -167 189 0
1.0 23 -154 0
1.0 -187 193 0
1.0 -18 85 0
1.0 181 -100 0
1.0 125 -138 0
1.0 -3 -52 0
1.0 -79 5 0
1.0 -193 104 0
1.0 -57 130 0
1.0 -123 -52 0
1.0 -137 -102 0
1.0 1 -163 0
1.0 101 -121 0
1.0 172 197 0
1.0 1 -144 0
1.0 48 -3 0
1.0 -133 146 0
1.0 -197 -83 0
1.0 185 -150 0
1.0 -112 126 0
1.0 -46 166 0
1.0 163 -145 0
1.0 -88 -163 0
1.0 165 166 0
1.0 -112 -188 0
1.0 71 146 0
1.0 95 90 0
1.0 16 150 0
1.0 115 135 0
1.0 79 -147 0
1.0 -109 198 0
1.0 -163 141 0
1.0 -128 -123 0
1.0 69 -23 0
1.0 -113 -92 0
1.0 -41 -188 0
1.0 122 -68 0
1.0 -14 -73 0
1.0 -70 68 0
1.0 -8 -167 0
1.0 -90 -89 0
1.0 -112 187 0
1.0 -78 -89 0
1.0 77 -142 0
1.0 -9 107 0
1.0 -180 165 0
1.0 32 141 0
1.0 -107 -189 0
1.0 -78 -109 0
1.0 95 -74 0
1.0 163 166 0
1.0 108 -165 0
1.0 -72 36 0
1.0 200 84 0
1.0 24 -181 0
1.0 -170 45 0
1.0 153 80 0
1.0 153 -50 0
1.0 -16 -111 0
1.0 76 -191 0
1.0 -27 178 0
1.0 61 96 0
1.0 77 127 0
1.0 172 -141 0
1.0 -20 -128 0
1.0 178 -191 0
1.0 -102 -41 0
1.0 -32 154 0
1.0 132 -121 0
1.0 17 142 0
1.0 -69 91 0
1.0 32 -164 0
1.0 -135 -23 0
1.0 110 -129 0
1.0 -44 -3 0
1.0 -127 40 0
1.0 124 121 0
1.0 -198 156 0
1.0 -95 -173 0
1.0 136 170 0
1.0 -193 -22 0
1.0 150 -20 0
1.0 -23 -34 0
1.0 -73 -118 0
1.0 39 58 0
1.0 -14 -194 0
1.0 166 -43 0
1.0 -13 120 0
1.0 -142 165 0
1.0 184 159 0
1.0 -193 74 0
1.0 192 150 0
1.0 8 121 0
1.0 -114 188 0
1.0 -31 165 0
1.0 85 151 0
1.0 -115 156 0
1.0 -115 -1 0
1.0 -74 60 0
1.0 9 31 0
1.0 152 159 0
1.0 -147 -168 0
1.0 132 124 0
1.0 75 -68 0
1.0 24 -158 0
1.0 158 192 0
